/*Objective Function*/

Min: 1.52 X1 + 1.60 X2 + 1.40 X3 + 1.7 X4 + 1.63 X5 + 1.55 X6 + 1.45 X7 + 1.57 X8 + 1.30 X9 + 5.15 X10 + 5.69 X11 + 6.13 X12 + 5.63 X13 + 5.80 X14 + 5.12 X15 + 5.47 X16 + 6.05 X17 + 6.12 X18 + 5.71 X19 + 5.32 X20 + 6.16 X21 + 6.25 X22 + 6.17 X23 + 5.87 X24;

/*Constraints*/

X1 + X2 + X3 = 93;
X4 + X5 + X6 = 88;
X7 + X8 + X9 = 95;
X10 + X15 + X20 = 30;
X11 + X16 + X21 = 57;
X12 + X17 + X22 = 48;
X13 + X18 + X23 = 91;
X14 + X19 + X24 = 48;
M16 + M26 + M36 = 2;

X1 + X4 + X7 - X10 - X11 - X12 - X13 - X14 - M16 = 0;
X2 + X5 + X8 - X15 - X16 - X17 - X18 - X19 - M26 = 0;
X3 + X6 + X9 - X20 - X21 - X22 - X23 - X24 - M36 = 0;